************************************************************************
file with basedata            : mm63_.bas
initial value random generator: 1979651787
************************************************************************
projects                      :  1
jobs (incl. supersource/sink ):  12
horizon                       :  77
RESOURCES
  - renewable                 :  2   R
  - nonrenewable              :  2   N
  - doubly constrained        :  0   D
************************************************************************
PROJECT INFORMATION:
pronr.  #jobs rel.date duedate tardcost  MPM-Time
    1     10      0       17        3       17
************************************************************************
PRECEDENCE RELATIONS:
jobnr.    #modes  #successors   successors
   0        1          3           1   2   3
   1        3          2           4   5
   2        3          3           7   8   9
   3        3          1          10
   4        3          2           6   8
   5        3          1           9
   6        3          2           9  10
   7        3          1          10
   8        3          1          11
   9        3          1          11
  10        3          1          11
  11        1          0        
************************************************************************
REQUESTS/DURATIONS:
jobnr. mode duration  R 1  R 2  R 3  R 4  E(W 1)  E(W 2)  E(W 3)
------------------------------------------------------------------------
  0      1     0       0    0    0    0     0       0       0
  1      1     8       5    4    2    5    72      16      40
  2      1     2       9    5    6    6    28      12      12
  3      1     1      10    8    5    6    18       5       6
  4      1     3       5    8    1    7    39       6      21
  5      1     2       8    7   10    7    30      20      14
  6      1     2       9    6    2    6    30       4      12
  7      1     4       8    6    6    9    56      24      36
  8      1     3       4    8    8    7    36      24      21
  9      1     4       5    9    9    8    56      36      32
 10      1     1       7    6    9    2    13       9       2
 11      1     0       0    0    0    0     0       0       0
************************************************************************
RESOURCEAVAILABILITIES:
  R 1  R 2  R 3
   47   56   60
************************************************************************
RESOURCE LIMITS:
jobnr.  l(R 1)  u(R 1)  l(R 2)  u(R 2)  l(R 3)  u(R 3)
------------------------------------------------------------------------
  0        0       0       0       0       0       0
  1        5       9       1       2       3       5
  2        8      14       3       6       3       6
  3        9      18       3       5       3       6
  4        7      13       1       2       4       7
  5        8      15       5      10       4       7
  6        8      15       1       2       3       6
  7        7      14       3       6       5       9
  8        6      12       4       8       4       7
  9        8      14       5       9       4       8
 10        7      13       5       9       1       2
 11        0       0       0       0       0       0
************************************************************************
SCENARIOS:
------------------------------------------------------------------------
RESOURCE k = 1
s = 1: (0, 47, 24, 22, 29, 26, 40, 65, 34, 58, 15, 0)
s = 2: (0, 57, 33, 21, 28, 36, 27, 64, 38, 40, 9, 0)
s = 3: (0, 71, 26, 15, 43, 20, 23, 62, 22, 39, 10, 0)
s = 4: (0, 49, 22, 28, 51, 37, 30, 59, 38, 32, 9, 0)
s = 5: (0, 48, 44, 17, 26, 34, 39, 53, 39, 117, 11, 0)
s = 6: (0, 41, 21, 30, 33, 32, 30, 36, 49, 59, 16, 0)
s = 7: (0, 64, 23, 21, 29, 31, 34, 44, 27, 83, 10, 0)
s = 8: (0, 88, 39, 25, 26, 31, 22, 39, 35, 61, 17, 0)
s = 9: (0, 78, 16, 13, 39, 22, 20, 70, 25, 49, 12, 0)
s = 10: (0, 45, 21, 19, 34, 30, 51, 63, 45, 89, 9, 0)
s = 11: (0, 80, 18, 18, 33, 22, 22, 50, 32, 61, 13, 0)
s = 12: (0, 77, 27, 21, 25, 30, 39, 64, 36, 49, 14, 0)
s = 13: (0, 106, 28, 15, 46, 27, 34, 63, 35, 47, 20, 0)
s = 14: (0, 56, 36, 16, 40, 27, 45, 56, 62, 54, 10, 0)
s = 15: (0, 80, 39, 24, 34, 38, 25, 88, 40, 46, 10, 0)
s = 16: (0, 79, 26, 21, 59, 29, 36, 52, 36, 45, 7, 0)
s = 17: (0, 66, 32, 22, 23, 47, 40, 45, 25, 37, 12, 0)
s = 18: (0, 83, 15, 10, 45, 33, 33, 50, 30, 60, 11, 0)
s = 19: (0, 76, 30, 12, 37, 23, 25, 63, 36, 57, 16, 0)
s = 20: (0, 92, 22, 27, 61, 33, 19, 78, 34, 38, 22, 0)
s = 21: (0, 47, 17, 28, 58, 24, 26, 54, 49, 52, 21, 0)
s = 22: (0, 71, 28, 26, 41, 30, 32, 50, 47, 57, 8, 0)
s = 23: (0, 72, 23, 16, 30, 26, 34, 39, 34, 73, 11, 0)
s = 24: (0, 68, 41, 20, 35, 33, 41, 71, 34, 41, 14, 0)
s = 25: (0, 107, 22, 13, 40, 25, 18, 54, 42, 36, 10, 0)
s = 26: (0, 83, 26, 26, 30, 50, 18, 37, 20, 58, 12, 0)
s = 27: (0, 120, 18, 18, 31, 23, 29, 58, 38, 71, 10, 0)
s = 28: (0, 44, 30, 11, 33, 19, 24, 47, 40, 69, 17, 0)
s = 29: (0, 99, 43, 18, 27, 35, 45, 42, 30, 46, 14, 0)
s = 30: (0, 45, 36, 14, 37, 36, 37, 67, 40, 62, 11, 0)
s = 31: (0, 51, 25, 21, 42, 37, 35, 76, 38, 32, 10, 0)
s = 32: (0, 84, 40, 17, 45, 27, 24, 58, 34, 88, 18, 0)
s = 33: (0, 81, 37, 17, 31, 32, 47, 89, 26, 43, 14, 0)
s = 34: (0, 65, 25, 21, 39, 19, 20, 36, 22, 84, 13, 0)
s = 35: (0, 49, 34, 27, 24, 30, 34, 70, 63, 60, 15, 0)
s = 36: (0, 42, 15, 16, 37, 23, 32, 58, 33, 74, 17, 0)
s = 37: (0, 70, 18, 23, 35, 18, 25, 47, 26, 76, 17, 0)
s = 38: (0, 55, 26, 25, 32, 35, 23, 83, 42, 45, 12, 0)
s = 39: (0, 57, 27, 16, 30, 22, 25, 59, 40, 51, 11, 0)
s = 40: (0, 44, 16, 15, 23, 40, 34, 44, 23, 50, 11, 0)
s = 41: (0, 67, 40, 10, 36, 39, 29, 60, 53, 51, 12, 0)
s = 42: (0, 81, 40, 17, 42, 35, 21, 40, 54, 49, 23, 0)
s = 43: (0, 41, 33, 22, 25, 32, 28, 31, 29, 84, 12, 0)
s = 44: (0, 66, 22, 20, 26, 32, 24, 49, 28, 65, 16, 0)
s = 45: (0, 46, 21, 16, 47, 26, 37, 82, 30, 49, 22, 0)
s = 46: (0, 104, 22, 16, 29, 46, 20, 42, 29, 70, 16, 0)
s = 47: (0, 55, 34, 16, 50, 40, 22, 45, 43, 45, 10, 0)
s = 48: (0, 59, 21, 20, 48, 19, 23, 67, 26, 74, 14, 0)
s = 49: (0, 62, 22, 15, 52, 29, 37, 41, 31, 56, 18, 0)
s = 50: (0, 62, 25, 18, 31, 23, 24, 64, 36, 64, 12, 0)
s = 51: (0, 84, 36, 22, 33, 24, 35, 50, 45, 35, 13, 0)
s = 52: (0, 67, 19, 16, 34, 37, 22, 38, 44, 40, 16, 0)
s = 53: (0, 68, 39, 16, 50, 16, 31, 35, 63, 46, 12, 0)
s = 54: (0, 90, 24, 19, 36, 35, 51, 54, 40, 50, 22, 0)
s = 55: (0, 83, 29, 16, 27, 25, 28, 31, 33, 77, 8, 0)
s = 56: (0, 79, 37, 15, 32, 36, 37, 35, 26, 56, 10, 0)
s = 57: (0, 73, 25, 20, 36, 37, 36, 48, 37, 64, 12, 0)
s = 58: (0, 95, 22, 11, 35, 33, 30, 43, 38, 66, 11, 0)
s = 59: (0, 83, 18, 26, 35, 40, 35, 69, 41, 51, 16, 0)
s = 60: (0, 98, 26, 19, 35, 36, 28, 64, 39, 33, 15, 0)
s = 61: (0, 60, 19, 17, 36, 25, 18, 70, 39, 55, 12, 0)
s = 62: (0, 110, 26, 12, 51, 30, 29, 36, 31, 65, 17, 0)
s = 63: (0, 63, 25, 21, 32, 25, 24, 34, 34, 45, 10, 0)
s = 64: (0, 87, 42, 23, 35, 19, 42, 35, 25, 70, 13, 0)
s = 65: (0, 60, 30, 16, 73, 36, 18, 45, 22, 58, 10, 0)
s = 66: (0, 65, 35, 20, 40, 31, 39, 45, 50, 61, 10, 0)
s = 67: (0, 93, 40, 32, 27, 20, 17, 48, 34, 57, 13, 0)
s = 68: (0, 75, 46, 25, 61, 25, 26, 61, 39, 73, 13, 0)
s = 69: (0, 76, 23, 15, 39, 38, 29, 64, 20, 44, 9, 0)
s = 70: (0, 48, 31, 19, 38, 30, 22, 86, 25, 49, 11, 0)
s = 71: (0, 56, 26, 17, 24, 28, 37, 43, 42, 68, 8, 0)
s = 72: (0, 50, 31, 15, 26, 20, 24, 72, 28, 48, 11, 0)
s = 73: (0, 44, 41, 20, 30, 25, 23, 76, 23, 57, 8, 0)
s = 74: (0, 100, 39, 13, 49, 26, 24, 35, 48, 32, 14, 0)
s = 75: (0, 82, 25, 20, 31, 40, 55, 41, 23, 47, 8, 0)
s = 76: (0, 86, 21, 16, 22, 26, 32, 81, 23, 42, 12, 0)
s = 77: (0, 41, 25, 15, 41, 27, 21, 57, 33, 62, 19, 0)
s = 78: (0, 92, 23, 24, 42, 19, 23, 71, 35, 59, 19, 0)
s = 79: (0, 82, 24, 22, 47, 41, 34, 37, 32, 58, 11, 0)
s = 80: (0, 107, 19, 27, 38, 27, 53, 79, 32, 82, 13, 0)
s = 81: (0, 52, 25, 18, 58, 40, 43, 70, 37, 44, 18, 0)
s = 82: (0, 79, 29, 22, 32, 26, 20, 55, 25, 47, 12, 0)
s = 83: (0, 64, 24, 20, 31, 39, 24, 61, 28, 81, 17, 0)
s = 84: (0, 58, 28, 27, 50, 38, 39, 69, 33, 54, 15, 0)
s = 85: (0, 49, 31, 22, 58, 33, 41, 60, 25, 43, 13, 0)
s = 86: (0, 92, 39, 26, 34, 31, 27, 55, 34, 40, 9, 0)
s = 87: (0, 91, 22, 19, 32, 44, 29, 80, 35, 46, 16, 0)
s = 88: (0, 58, 23, 16, 25, 26, 32, 67, 23, 56, 14, 0)
s = 89: (0, 68, 36, 16, 37, 30, 31, 50, 31, 47, 12, 0)
s = 90: (0, 67, 16, 28, 40, 34, 26, 51, 21, 60, 8, 0)
s = 91: (0, 64, 37, 22, 30, 39, 28, 78, 28, 63, 17, 0)
s = 92: (0, 58, 18, 20, 44, 29, 18, 69, 36, 47, 12, 0)
s = 93: (0, 66, 25, 19, 26, 35, 48, 78, 45, 40, 10, 0)
s = 94: (0, 134, 28, 19, 43, 28, 32, 68, 47, 58, 9, 0)
s = 95: (0, 77, 30, 21, 59, 33, 27, 43, 29, 57, 18, 0)
s = 96: (0, 66, 30, 26, 60, 36, 33, 68, 45, 64, 21, 0)
s = 97: (0, 101, 37, 17, 38, 40, 29, 63, 33, 59, 12, 0)
s = 98: (0, 66, 18, 22, 61, 33, 21, 64, 25, 67, 15, 0)
s = 99: (0, 83, 34, 13, 52, 35, 26, 37, 37, 47, 11, 0)
s = 100: (0, 42, 27, 32, 51, 17, 39, 68, 41, 45, 11, 0)
s = 101: (0, 78, 33, 12, 31, 34, 37, 64, 31, 51, 15, 0)
s = 102: (0, 87, 17, 17, 34, 33, 21, 75, 28, 47, 9, 0)
s = 103: (0, 49, 30, 22, 26, 45, 30, 44, 32, 41, 11, 0)
s = 104: (0, 52, 21, 23, 22, 40, 18, 81, 43, 83, 18, 0)
s = 105: (0, 49, 29, 17, 23, 37, 25, 93, 30, 51, 17, 0)
s = 106: (0, 96, 25, 27, 41, 34, 38, 63, 44, 51, 13, 0)
s = 107: (0, 47, 31, 15, 32, 21, 47, 66, 32, 64, 10, 0)
s = 108: (0, 111, 35, 16, 46, 21, 19, 84, 29, 31, 20, 0)
s = 109: (0, 66, 32, 11, 34, 38, 35, 67, 37, 65, 11, 0)
s = 110: (0, 97, 38, 17, 29, 26, 20, 68, 35, 43, 16, 0)
s = 111: (0, 65, 24, 18, 50, 36, 39, 51, 57, 68, 10, 0)
s = 112: (0, 80, 18, 25, 30, 17, 17, 44, 36, 41, 9, 0)
s = 113: (0, 77, 22, 15, 33, 36, 21, 68, 23, 57, 12, 0)
s = 114: (0, 91, 18, 17, 22, 31, 26, 73, 44, 59, 14, 0)
s = 115: (0, 51, 31, 26, 47, 28, 42, 31, 26, 52, 11, 0)
s = 116: (0, 48, 17, 18, 28, 35, 26, 56, 36, 86, 12, 0)
s = 117: (0, 97, 30, 19, 38, 31, 20, 41, 47, 32, 19, 0)
s = 118: (0, 65, 20, 25, 30, 28, 22, 69, 25, 43, 18, 0)
s = 119: (0, 93, 35, 14, 46, 19, 18, 95, 28, 52, 12, 0)
s = 120: (0, 80, 25, 24, 32, 34, 24, 61, 29, 62, 10, 0)
s = 121: (0, 84, 21, 22, 34, 22, 19, 51, 24, 54, 20, 0)
s = 122: (0, 48, 33, 28, 39, 36, 24, 68, 44, 61, 14, 0)
s = 123: (0, 65, 37, 28, 34, 34, 40, 40, 39, 55, 10, 0)
s = 124: (0, 69, 23, 20, 44, 18, 58, 93, 32, 74, 9, 0)
s = 125: (0, 81, 18, 12, 39, 29, 27, 67, 31, 45, 12, 0)
s = 126: (0, 64, 30, 30, 36, 30, 26, 71, 39, 52, 11, 0)
s = 127: (0, 134, 22, 20, 33, 36, 43, 83, 38, 60, 14, 0)
s = 128: (0, 94, 17, 16, 35, 18, 20, 51, 42, 68, 10, 0)
s = 129: (0, 39, 42, 18, 23, 35, 37, 46, 46, 68, 10, 0)
s = 130: (0, 77, 36, 13, 40, 36, 19, 49, 43, 55, 20, 0)
s = 131: (0, 60, 39, 15, 46, 39, 26, 51, 46, 49, 8, 0)
s = 132: (0, 71, 19, 23, 54, 42, 27, 55, 32, 78, 11, 0)
s = 133: (0, 42, 36, 17, 54, 25, 40, 71, 37, 58, 14, 0)
s = 134: (0, 125, 25, 22, 60, 29, 27, 57, 55, 48, 14, 0)
s = 135: (0, 61, 23, 11, 43, 42, 29, 45, 49, 71, 13, 0)
s = 136: (0, 48, 24, 12, 43, 21, 22, 76, 23, 43, 17, 0)
s = 137: (0, 113, 36, 16, 38, 19, 31, 38, 31, 53, 17, 0)
s = 138: (0, 74, 29, 20, 41, 24, 23, 42, 33, 40, 9, 0)
s = 139: (0, 92, 19, 11, 39, 39, 33, 67, 47, 42, 18, 0)
s = 140: (0, 54, 27, 25, 46, 37, 25, 52, 31, 76, 9, 0)
s = 141: (0, 38, 18, 27, 43, 37, 28, 79, 33, 79, 19, 0)
s = 142: (0, 91, 36, 15, 22, 35, 26, 38, 53, 64, 14, 0)
s = 143: (0, 88, 33, 23, 40, 43, 32, 54, 24, 58, 12, 0)
s = 144: (0, 80, 27, 13, 54, 45, 29, 48, 59, 103, 11, 0)
s = 145: (0, 54, 23, 13, 26, 33, 20, 51, 37, 85, 12, 0)
s = 146: (0, 84, 47, 18, 30, 16, 35, 53, 24, 57, 16, 0)
s = 147: (0, 118, 36, 14, 43, 37, 19, 45, 40, 78, 11, 0)
s = 148: (0, 72, 19, 20, 45, 48, 33, 64, 28, 42, 8, 0)
s = 149: (0, 138, 24, 36, 38, 44, 28, 54, 44, 62, 16, 0)
s = 150: (0, 64, 17, 13, 56, 21, 36, 52, 35, 63, 10, 0)
s = 151: (0, 55, 31, 21, 32, 54, 19, 57, 25, 48, 10, 0)
s = 152: (0, 65, 29, 15, 27, 25, 25, 94, 58, 50, 11, 0)
s = 153: (0, 58, 32, 21, 30, 18, 20, 77, 35, 79, 12, 0)
s = 154: (0, 100, 34, 13, 42, 31, 26, 38, 29, 60, 19, 0)
s = 155: (0, 66, 26, 18, 40, 19, 41, 49, 39, 37, 14, 0)
s = 156: (0, 76, 28, 27, 38, 32, 31, 56, 40, 78, 16, 0)
s = 157: (0, 75, 33, 15, 36, 21, 40, 61, 28, 100, 20, 0)
s = 158: (0, 106, 42, 19, 31, 48, 25, 53, 40, 78, 18, 0)
s = 159: (0, 94, 19, 18, 44, 21, 35, 38, 29, 67, 20, 0)
s = 160: (0, 126, 34, 14, 44, 33, 47, 46, 63, 54, 7, 0)
s = 161: (0, 104, 32, 10, 22, 36, 43, 47, 26, 53, 14, 0)
s = 162: (0, 90, 39, 14, 44, 22, 37, 48, 25, 32, 11, 0)
s = 163: (0, 69, 39, 22, 54, 47, 45, 60, 40, 59, 18, 0)
s = 164: (0, 72, 37, 19, 52, 25, 29, 36, 36, 85, 11, 0)
s = 165: (0, 94, 23, 23, 44, 30, 23, 38, 34, 76, 13, 0)
s = 166: (0, 64, 21, 15, 65, 46, 31, 45, 27, 41, 9, 0)
s = 167: (0, 98, 27, 17, 32, 24, 25, 51, 21, 49, 9, 0)
s = 168: (0, 39, 20, 13, 25, 29, 43, 59, 57, 70, 13, 0)
s = 169: (0, 65, 20, 32, 75, 28, 45, 50, 21, 59, 10, 0)
s = 170: (0, 77, 23, 22, 51, 29, 25, 31, 26, 43, 10, 0)
s = 171: (0, 74, 25, 18, 41, 16, 32, 79, 49, 37, 24, 0)
s = 172: (0, 69, 32, 18, 29, 27, 22, 50, 59, 84, 19, 0)
s = 173: (0, 66, 18, 15, 55, 26, 31, 35, 21, 40, 10, 0)
s = 174: (0, 84, 17, 25, 44, 37, 22, 63, 46, 54, 11, 0)
s = 175: (0, 79, 26, 21, 58, 21, 22, 77, 27, 40, 12, 0)
s = 176: (0, 67, 34, 10, 61, 19, 28, 73, 24, 49, 11, 0)
s = 177: (0, 56, 28, 11, 29, 23, 31, 53, 29, 50, 18, 0)
s = 178: (0, 106, 26, 15, 43, 34, 26, 53, 42, 40, 9, 0)
s = 179: (0, 54, 21, 16, 26, 44, 38, 65, 25, 37, 12, 0)
s = 180: (0, 77, 23, 17, 30, 18, 23, 69, 51, 46, 20, 0)
s = 181: (0, 52, 25, 18, 49, 47, 31, 52, 21, 69, 14, 0)
s = 182: (0, 58, 29, 23, 24, 36, 30, 64, 61, 41, 8, 0)
s = 183: (0, 112, 22, 15, 33, 40, 25, 51, 36, 43, 10, 0)
s = 184: (0, 76, 32, 22, 50, 37, 43, 64, 24, 56, 21, 0)
s = 185: (0, 60, 33, 14, 39, 18, 38, 46, 38, 52, 8, 0)
s = 186: (0, 56, 22, 15, 43, 19, 50, 56, 55, 55, 12, 0)
s = 187: (0, 68, 20, 22, 32, 37, 21, 48, 54, 55, 18, 0)
s = 188: (0, 39, 26, 12, 27, 25, 24, 55, 46, 63, 19, 0)
s = 189: (0, 40, 19, 17, 34, 25, 25, 30, 62, 40, 10, 0)
s = 190: (0, 88, 42, 10, 43, 20, 21, 55, 25, 55, 13, 0)
s = 191: (0, 47, 24, 17, 39, 24, 30, 69, 27, 48, 16, 0)
s = 192: (0, 77, 47, 14, 36, 25, 31, 42, 31, 42, 17, 0)
s = 193: (0, 53, 36, 24, 57, 43, 27, 53, 49, 73, 11, 0)
s = 194: (0, 80, 49, 17, 47, 32, 32, 76, 24, 63, 10, 0)
s = 195: (0, 97, 28, 18, 42, 34, 26, 80, 42, 42, 16, 0)
s = 196: (0, 78, 30, 15, 33, 24, 23, 69, 25, 49, 13, 0)
s = 197: (0, 44, 21, 14, 30, 36, 30, 42, 32, 42, 11, 0)
s = 198: (0, 61, 35, 14, 41, 19, 22, 50, 64, 67, 17, 0)
s = 199: (0, 58, 17, 16, 34, 30, 49, 59, 24, 37, 11, 0)
s = 200: (0, 87, 33, 23, 28, 30, 29, 49, 35, 100, 14, 0)
------------------------------------------------------------------------
RESOURCE k = 2
s = 1: (0, 11, 11, 6, 5, 17, 6, 28, 23, 38, 10, 0)
s = 2: (0, 13, 14, 6, 5, 24, 4, 28, 25, 26, 7, 0)
s = 3: (0, 16, 12, 4, 7, 14, 4, 27, 15, 25, 7, 0)
s = 4: (0, 11, 10, 8, 8, 25, 4, 26, 25, 21, 6, 0)
s = 5: (0, 11, 19, 5, 4, 23, 6, 23, 26, 75, 8, 0)
s = 6: (0, 10, 9, 9, 5, 21, 4, 16, 33, 38, 11, 0)
s = 7: (0, 15, 10, 6, 5, 21, 5, 19, 18, 53, 7, 0)
s = 8: (0, 20, 17, 7, 4, 21, 3, 17, 24, 39, 12, 0)
s = 9: (0, 18, 7, 4, 6, 15, 3, 30, 17, 32, 9, 0)
s = 10: (0, 10, 9, 6, 6, 20, 7, 27, 30, 57, 6, 0)
s = 11: (0, 18, 8, 5, 5, 15, 3, 22, 21, 40, 9, 0)
s = 12: (0, 18, 12, 6, 4, 20, 6, 28, 24, 32, 10, 0)
s = 13: (0, 24, 12, 5, 8, 18, 5, 27, 24, 30, 14, 0)
s = 14: (0, 13, 16, 5, 7, 18, 6, 24, 42, 35, 7, 0)
s = 15: (0, 18, 17, 7, 6, 25, 4, 38, 27, 30, 7, 0)
s = 16: (0, 18, 12, 6, 9, 19, 5, 22, 24, 29, 5, 0)
s = 17: (0, 15, 14, 7, 4, 32, 6, 19, 17, 24, 8, 0)
s = 18: (0, 19, 7, 3, 7, 22, 5, 22, 20, 39, 8, 0)
s = 19: (0, 17, 13, 4, 6, 16, 4, 27, 24, 37, 11, 0)
s = 20: (0, 21, 10, 8, 10, 22, 3, 34, 23, 24, 16, 0)
s = 21: (0, 11, 7, 8, 9, 16, 4, 24, 33, 34, 15, 0)
s = 22: (0, 16, 12, 8, 7, 20, 5, 22, 31, 37, 6, 0)
s = 23: (0, 16, 10, 5, 5, 18, 5, 17, 23, 47, 7, 0)
s = 24: (0, 16, 18, 6, 6, 22, 6, 31, 23, 27, 10, 0)
s = 25: (0, 24, 10, 4, 7, 17, 3, 23, 28, 23, 7, 0)
s = 26: (0, 19, 11, 7, 5, 34, 3, 16, 14, 38, 8, 0)
s = 27: (0, 27, 8, 5, 5, 15, 4, 25, 26, 46, 7, 0)
s = 28: (0, 10, 13, 3, 6, 13, 4, 20, 27, 45, 12, 0)
s = 29: (0, 22, 19, 5, 5, 23, 6, 18, 20, 30, 10, 0)
s = 30: (0, 10, 16, 4, 6, 24, 5, 29, 27, 40, 8, 0)
s = 31: (0, 12, 11, 6, 7, 25, 5, 33, 25, 21, 7, 0)
s = 32: (0, 19, 17, 5, 7, 18, 4, 25, 23, 57, 13, 0)
s = 33: (0, 18, 16, 5, 5, 21, 7, 38, 18, 28, 10, 0)
s = 34: (0, 15, 11, 6, 6, 13, 3, 16, 15, 54, 9, 0)
s = 35: (0, 11, 15, 8, 4, 20, 5, 30, 42, 39, 11, 0)
s = 36: (0, 10, 7, 5, 6, 15, 5, 25, 22, 48, 12, 0)
s = 37: (0, 16, 8, 7, 6, 12, 4, 21, 18, 49, 12, 0)
s = 38: (0, 13, 11, 7, 5, 23, 3, 36, 28, 29, 9, 0)
s = 39: (0, 13, 12, 5, 5, 15, 4, 25, 27, 33, 8, 0)
s = 40: (0, 10, 7, 4, 4, 27, 5, 19, 16, 33, 8, 0)
s = 41: (0, 15, 17, 3, 6, 26, 4, 26, 35, 33, 9, 0)
s = 42: (0, 18, 17, 5, 7, 24, 3, 18, 36, 32, 16, 0)
s = 43: (0, 9, 14, 6, 4, 21, 4, 13, 19, 54, 9, 0)
s = 44: (0, 15, 10, 6, 4, 22, 4, 21, 19, 42, 11, 0)
s = 45: (0, 11, 9, 5, 8, 18, 5, 35, 20, 32, 16, 0)
s = 46: (0, 24, 10, 5, 5, 31, 3, 18, 19, 45, 11, 0)
s = 47: (0, 13, 15, 5, 8, 27, 3, 20, 29, 29, 7, 0)
s = 48: (0, 13, 9, 6, 8, 13, 4, 29, 17, 48, 10, 0)
s = 49: (0, 14, 10, 5, 8, 19, 5, 18, 21, 36, 13, 0)
s = 50: (0, 14, 11, 5, 5, 15, 4, 28, 24, 41, 8, 0)
s = 51: (0, 19, 16, 6, 6, 16, 5, 22, 30, 23, 9, 0)
s = 52: (0, 15, 8, 5, 6, 25, 3, 17, 29, 26, 11, 0)
s = 53: (0, 15, 17, 5, 8, 11, 5, 15, 42, 30, 9, 0)
s = 54: (0, 20, 10, 6, 6, 23, 7, 24, 27, 32, 15, 0)
s = 55: (0, 19, 13, 5, 5, 17, 4, 14, 22, 49, 6, 0)
s = 56: (0, 18, 16, 4, 5, 24, 5, 15, 18, 36, 7, 0)
s = 57: (0, 17, 11, 6, 6, 25, 5, 21, 25, 41, 8, 0)
s = 58: (0, 21, 10, 3, 6, 22, 4, 19, 25, 43, 8, 0)
s = 59: (0, 19, 8, 8, 6, 27, 5, 30, 28, 33, 11, 0)
s = 60: (0, 22, 11, 6, 6, 24, 4, 28, 26, 22, 11, 0)
s = 61: (0, 14, 8, 5, 6, 17, 3, 30, 26, 36, 9, 0)
s = 62: (0, 25, 11, 4, 8, 20, 4, 16, 21, 42, 12, 0)
s = 63: (0, 14, 11, 6, 5, 17, 4, 15, 23, 29, 7, 0)
s = 64: (0, 20, 18, 7, 6, 13, 6, 15, 17, 45, 9, 0)
s = 65: (0, 14, 13, 5, 12, 24, 3, 20, 15, 37, 7, 0)
s = 66: (0, 15, 15, 6, 7, 21, 6, 20, 34, 39, 7, 0)
s = 67: (0, 21, 17, 9, 5, 13, 3, 21, 23, 37, 9, 0)
s = 68: (0, 17, 20, 7, 10, 17, 4, 26, 26, 47, 9, 0)
s = 69: (0, 17, 10, 5, 6, 26, 4, 28, 14, 28, 6, 0)
s = 70: (0, 11, 14, 6, 6, 20, 3, 37, 17, 32, 8, 0)
s = 71: (0, 13, 11, 5, 4, 19, 5, 19, 28, 44, 6, 0)
s = 72: (0, 12, 14, 4, 4, 13, 4, 31, 19, 31, 7, 0)
s = 73: (0, 10, 18, 6, 5, 17, 4, 33, 15, 37, 6, 0)
s = 74: (0, 23, 17, 4, 8, 17, 4, 15, 32, 21, 10, 0)
s = 75: (0, 19, 11, 6, 5, 27, 8, 18, 16, 31, 5, 0)
s = 76: (0, 20, 9, 5, 4, 17, 5, 35, 16, 27, 8, 0)
s = 77: (0, 9, 11, 5, 7, 18, 3, 25, 22, 40, 13, 0)
s = 78: (0, 21, 10, 7, 7, 13, 3, 31, 23, 38, 13, 0)
s = 79: (0, 19, 10, 6, 8, 28, 5, 16, 21, 38, 8, 0)
s = 80: (0, 24, 8, 8, 6, 18, 7, 34, 22, 53, 9, 0)
s = 81: (0, 12, 11, 5, 9, 27, 6, 30, 25, 29, 13, 0)
s = 82: (0, 18, 13, 7, 5, 18, 3, 24, 17, 30, 9, 0)
s = 83: (0, 15, 11, 6, 5, 26, 4, 26, 19, 52, 12, 0)
s = 84: (0, 13, 12, 8, 8, 26, 6, 30, 22, 35, 11, 0)
s = 85: (0, 11, 13, 6, 9, 22, 6, 26, 17, 28, 9, 0)
s = 86: (0, 21, 17, 8, 6, 21, 4, 24, 23, 26, 6, 0)
s = 87: (0, 21, 10, 6, 5, 30, 4, 34, 23, 30, 11, 0)
s = 88: (0, 13, 10, 5, 4, 18, 5, 29, 15, 36, 10, 0)
s = 89: (0, 15, 16, 5, 6, 20, 5, 22, 21, 31, 8, 0)
s = 90: (0, 15, 7, 8, 7, 23, 4, 22, 14, 39, 6, 0)
s = 91: (0, 15, 16, 6, 5, 26, 4, 34, 19, 40, 12, 0)
s = 92: (0, 13, 8, 6, 7, 20, 3, 30, 24, 31, 8, 0)
s = 93: (0, 15, 11, 6, 4, 24, 7, 34, 30, 26, 7, 0)
s = 94: (0, 30, 12, 6, 7, 19, 5, 29, 31, 38, 6, 0)
s = 95: (0, 18, 13, 6, 10, 22, 4, 19, 20, 37, 13, 0)
s = 96: (0, 15, 13, 8, 10, 24, 5, 30, 30, 41, 15, 0)
s = 97: (0, 23, 16, 5, 6, 27, 4, 27, 22, 38, 8, 0)
s = 98: (0, 15, 8, 6, 10, 22, 3, 28, 17, 43, 11, 0)
s = 99: (0, 19, 15, 4, 8, 24, 4, 16, 25, 31, 8, 0)
s = 100: (0, 10, 12, 9, 8, 11, 6, 29, 28, 29, 8, 0)
s = 101: (0, 18, 14, 4, 5, 23, 5, 28, 21, 33, 11, 0)
s = 102: (0, 20, 8, 5, 6, 22, 3, 32, 19, 30, 7, 0)
s = 103: (0, 11, 13, 7, 4, 30, 4, 19, 22, 26, 8, 0)
s = 104: (0, 12, 9, 7, 4, 27, 3, 35, 29, 54, 13, 0)
s = 105: (0, 11, 13, 5, 4, 25, 4, 40, 20, 33, 12, 0)
s = 106: (0, 22, 11, 8, 7, 23, 6, 27, 30, 33, 9, 0)
s = 107: (0, 11, 14, 5, 5, 14, 7, 29, 22, 41, 7, 0)
s = 108: (0, 25, 15, 5, 8, 14, 3, 36, 20, 20, 14, 0)
s = 109: (0, 15, 14, 4, 6, 25, 5, 29, 25, 42, 7, 0)
s = 110: (0, 22, 16, 5, 5, 18, 3, 29, 24, 28, 11, 0)
s = 111: (0, 15, 11, 5, 8, 24, 6, 22, 38, 44, 7, 0)
s = 112: (0, 18, 8, 7, 5, 11, 3, 19, 24, 27, 6, 0)
s = 113: (0, 18, 10, 5, 6, 24, 3, 29, 16, 37, 8, 0)
s = 114: (0, 21, 8, 5, 4, 21, 4, 32, 29, 38, 10, 0)
s = 115: (0, 12, 14, 8, 8, 19, 6, 14, 17, 34, 8, 0)
s = 116: (0, 11, 7, 5, 5, 23, 4, 24, 24, 55, 9, 0)
s = 117: (0, 22, 13, 6, 6, 21, 3, 18, 31, 21, 13, 0)
s = 118: (0, 15, 9, 7, 5, 19, 3, 30, 17, 28, 13, 0)
s = 119: (0, 21, 15, 4, 8, 13, 3, 41, 19, 34, 9, 0)
s = 120: (0, 18, 11, 7, 5, 23, 4, 26, 20, 40, 7, 0)
s = 121: (0, 19, 9, 7, 6, 15, 3, 22, 16, 35, 14, 0)
s = 122: (0, 11, 15, 8, 6, 24, 4, 29, 30, 39, 10, 0)
s = 123: (0, 15, 16, 8, 6, 23, 6, 17, 26, 36, 7, 0)
s = 124: (0, 16, 10, 6, 7, 12, 8, 40, 21, 48, 7, 0)
s = 125: (0, 18, 8, 4, 6, 19, 4, 29, 21, 29, 9, 0)
s = 126: (0, 15, 13, 9, 6, 20, 4, 31, 26, 33, 8, 0)
s = 127: (0, 30, 10, 6, 6, 24, 6, 36, 25, 39, 10, 0)
s = 128: (0, 21, 7, 5, 6, 12, 3, 22, 28, 44, 7, 0)
s = 129: (0, 9, 18, 5, 4, 24, 5, 20, 31, 44, 7, 0)
s = 130: (0, 18, 16, 4, 7, 24, 3, 21, 29, 36, 14, 0)
s = 131: (0, 14, 17, 5, 7, 26, 4, 22, 31, 32, 6, 0)
s = 132: (0, 16, 9, 7, 9, 28, 4, 24, 22, 50, 7, 0)
s = 133: (0, 10, 16, 5, 9, 17, 6, 31, 25, 37, 10, 0)
s = 134: (0, 28, 11, 6, 10, 19, 4, 25, 37, 31, 10, 0)
s = 135: (0, 14, 10, 3, 7, 28, 4, 20, 33, 46, 9, 0)
s = 136: (0, 11, 11, 4, 7, 14, 3, 33, 15, 28, 12, 0)
s = 137: (0, 26, 16, 5, 6, 13, 5, 17, 21, 35, 12, 0)
s = 138: (0, 17, 13, 6, 7, 16, 4, 18, 22, 26, 6, 0)
s = 139: (0, 21, 8, 3, 6, 26, 5, 29, 32, 27, 12, 0)
s = 140: (0, 12, 12, 7, 8, 25, 4, 23, 21, 49, 6, 0)
s = 141: (0, 9, 8, 8, 7, 25, 4, 34, 22, 51, 13, 0)
s = 142: (0, 21, 16, 5, 4, 23, 4, 17, 36, 42, 10, 0)
s = 143: (0, 20, 14, 7, 7, 29, 5, 23, 16, 37, 9, 0)
s = 144: (0, 18, 12, 4, 9, 30, 4, 21, 39, 67, 8, 0)
s = 145: (0, 12, 10, 4, 4, 22, 3, 22, 25, 55, 9, 0)
s = 146: (0, 19, 20, 5, 5, 11, 5, 23, 16, 37, 11, 0)
s = 147: (0, 27, 16, 4, 7, 25, 3, 20, 27, 50, 8, 0)
s = 148: (0, 16, 8, 6, 7, 32, 5, 28, 19, 27, 6, 0)
s = 149: (0, 31, 11, 10, 6, 30, 4, 23, 30, 40, 11, 0)
s = 150: (0, 15, 8, 4, 9, 14, 5, 23, 24, 41, 7, 0)
s = 151: (0, 13, 14, 6, 5, 36, 3, 25, 17, 31, 7, 0)
s = 152: (0, 15, 13, 4, 5, 17, 4, 41, 39, 33, 8, 0)
s = 153: (0, 13, 14, 6, 5, 12, 3, 33, 23, 51, 9, 0)
s = 154: (0, 23, 15, 4, 7, 21, 4, 16, 20, 39, 13, 0)
s = 155: (0, 15, 11, 5, 7, 13, 6, 21, 26, 24, 10, 0)
s = 156: (0, 17, 12, 8, 6, 21, 5, 24, 27, 50, 11, 0)
s = 157: (0, 17, 15, 5, 6, 14, 6, 27, 19, 65, 14, 0)
s = 158: (0, 24, 18, 6, 5, 32, 4, 23, 27, 50, 12, 0)
s = 159: (0, 21, 8, 5, 7, 14, 5, 16, 19, 44, 14, 0)
s = 160: (0, 28, 15, 4, 7, 22, 7, 20, 42, 35, 5, 0)
s = 161: (0, 24, 14, 3, 4, 24, 6, 21, 18, 34, 10, 0)
s = 162: (0, 20, 17, 4, 7, 15, 5, 21, 17, 21, 8, 0)
s = 163: (0, 16, 17, 7, 9, 32, 6, 26, 27, 38, 13, 0)
s = 164: (0, 16, 16, 6, 8, 17, 4, 16, 24, 55, 8, 0)
s = 165: (0, 21, 10, 7, 7, 20, 3, 16, 23, 49, 9, 0)
s = 166: (0, 15, 9, 5, 10, 31, 5, 20, 18, 27, 6, 0)
s = 167: (0, 22, 12, 5, 5, 16, 4, 22, 14, 32, 7, 0)
s = 168: (0, 9, 9, 4, 4, 20, 6, 26, 38, 45, 9, 0)
s = 169: (0, 15, 9, 9, 12, 19, 6, 22, 14, 38, 7, 0)
s = 170: (0, 17, 10, 7, 8, 19, 4, 14, 17, 28, 7, 0)
s = 171: (0, 17, 11, 5, 7, 11, 5, 34, 33, 24, 16, 0)
s = 172: (0, 16, 14, 5, 5, 18, 3, 22, 39, 54, 13, 0)
s = 173: (0, 15, 8, 4, 9, 17, 5, 15, 14, 26, 7, 0)
s = 174: (0, 19, 8, 7, 7, 25, 3, 27, 31, 35, 8, 0)
s = 175: (0, 18, 11, 6, 9, 14, 3, 33, 18, 26, 8, 0)
s = 176: (0, 15, 15, 3, 10, 13, 4, 32, 16, 32, 8, 0)
s = 177: (0, 13, 12, 3, 5, 15, 5, 23, 19, 32, 13, 0)
s = 178: (0, 24, 11, 5, 7, 23, 4, 23, 28, 26, 6, 0)
s = 179: (0, 12, 9, 5, 4, 29, 6, 28, 17, 24, 8, 0)
s = 180: (0, 18, 10, 5, 5, 12, 3, 30, 34, 30, 14, 0)
s = 181: (0, 12, 11, 5, 8, 31, 5, 23, 14, 45, 10, 0)
s = 182: (0, 13, 13, 7, 4, 24, 4, 28, 41, 27, 6, 0)
s = 183: (0, 25, 10, 5, 6, 27, 4, 22, 24, 28, 7, 0)
s = 184: (0, 17, 14, 6, 8, 25, 6, 28, 16, 36, 14, 0)
s = 185: (0, 14, 15, 4, 6, 12, 5, 20, 26, 33, 5, 0)
s = 186: (0, 13, 10, 5, 7, 13, 7, 24, 37, 36, 9, 0)
s = 187: (0, 15, 9, 6, 5, 25, 3, 21, 36, 36, 13, 0)
s = 188: (0, 9, 11, 4, 5, 17, 4, 24, 31, 40, 14, 0)
s = 189: (0, 9, 8, 5, 6, 17, 4, 13, 41, 26, 7, 0)
s = 190: (0, 20, 18, 3, 7, 13, 3, 24, 17, 35, 9, 0)
s = 191: (0, 11, 11, 5, 6, 16, 4, 30, 18, 31, 11, 0)
s = 192: (0, 17, 20, 4, 6, 17, 5, 18, 21, 27, 12, 0)
s = 193: (0, 12, 16, 7, 9, 29, 4, 23, 33, 47, 8, 0)
s = 194: (0, 18, 21, 5, 8, 22, 5, 33, 16, 40, 7, 0)
s = 195: (0, 22, 12, 5, 7, 23, 4, 35, 28, 27, 11, 0)
s = 196: (0, 18, 13, 5, 6, 16, 4, 30, 17, 32, 9, 0)
s = 197: (0, 10, 9, 4, 5, 24, 4, 18, 21, 27, 8, 0)
s = 198: (0, 14, 15, 4, 7, 13, 3, 22, 43, 44, 12, 0)
s = 199: (0, 13, 8, 5, 6, 20, 7, 25, 16, 24, 8, 0)
s = 200: (0, 20, 14, 7, 5, 20, 4, 21, 24, 65, 10, 0)
------------------------------------------------------------------------
RESOURCE k = 3
s = 1: (0, 26, 11, 8, 16, 12, 16, 42, 20, 34, 3, 0)
s = 2: (0, 32, 14, 7, 15, 17, 11, 41, 22, 23, 2, 0)
s = 3: (0, 40, 12, 5, 24, 10, 10, 40, 13, 22, 2, 0)
s = 4: (0, 28, 10, 10, 28, 17, 12, 38, 22, 18, 2, 0)
s = 5: (0, 27, 19, 6, 14, 16, 16, 34, 23, 67, 2, 0)
s = 6: (0, 23, 9, 10, 18, 15, 12, 24, 29, 34, 3, 0)
s = 7: (0, 36, 10, 7, 16, 15, 14, 28, 16, 48, 2, 0)
s = 8: (0, 49, 17, 9, 14, 15, 9, 25, 21, 35, 3, 0)
s = 9: (0, 44, 7, 5, 21, 10, 8, 45, 15, 28, 2, 0)
s = 10: (0, 25, 9, 7, 19, 14, 21, 41, 26, 51, 2, 0)
s = 11: (0, 44, 8, 6, 18, 11, 9, 32, 19, 35, 2, 0)
s = 12: (0, 43, 12, 7, 13, 14, 16, 41, 21, 28, 3, 0)
s = 13: (0, 59, 12, 5, 25, 13, 14, 41, 21, 27, 4, 0)
s = 14: (0, 31, 16, 6, 22, 13, 18, 36, 37, 31, 2, 0)
s = 15: (0, 45, 17, 8, 18, 18, 10, 57, 24, 26, 2, 0)
s = 16: (0, 44, 12, 7, 32, 14, 15, 33, 21, 26, 2, 0)
s = 17: (0, 37, 14, 8, 13, 22, 16, 29, 15, 21, 2, 0)
s = 18: (0, 46, 7, 4, 24, 16, 14, 32, 18, 35, 2, 0)
s = 19: (0, 42, 13, 4, 20, 11, 10, 40, 21, 33, 3, 0)
s = 20: (0, 51, 10, 9, 33, 16, 8, 51, 20, 22, 4, 0)
s = 21: (0, 27, 7, 10, 32, 12, 11, 35, 29, 30, 4, 0)
s = 22: (0, 40, 12, 9, 22, 14, 13, 33, 27, 33, 2, 0)
s = 23: (0, 40, 10, 6, 16, 13, 14, 26, 20, 42, 2, 0)
s = 24: (0, 38, 18, 7, 19, 16, 17, 46, 20, 24, 3, 0)
s = 25: (0, 60, 10, 5, 22, 12, 8, 35, 25, 21, 2, 0)
s = 26: (0, 46, 11, 9, 16, 24, 8, 24, 12, 34, 2, 0)
s = 27: (0, 67, 8, 6, 17, 11, 12, 37, 23, 41, 2, 0)
s = 28: (0, 25, 13, 4, 18, 9, 10, 30, 24, 40, 3, 0)
s = 29: (0, 55, 19, 6, 15, 17, 18, 27, 18, 26, 3, 0)
s = 30: (0, 25, 16, 5, 20, 17, 15, 43, 24, 36, 2, 0)
s = 31: (0, 28, 11, 7, 23, 18, 14, 49, 22, 19, 2, 0)
s = 32: (0, 47, 17, 6, 25, 13, 10, 38, 20, 50, 3, 0)
s = 33: (0, 45, 16, 6, 17, 15, 19, 57, 15, 25, 3, 0)
s = 34: (0, 36, 11, 7, 21, 9, 8, 23, 13, 48, 2, 0)
s = 35: (0, 27, 15, 9, 13, 14, 14, 45, 37, 35, 3, 0)
s = 36: (0, 23, 7, 6, 20, 11, 13, 38, 19, 43, 3, 0)
s = 37: (0, 39, 8, 8, 19, 9, 10, 31, 16, 44, 3, 0)
s = 38: (0, 31, 11, 9, 18, 17, 9, 53, 25, 26, 2, 0)
s = 39: (0, 32, 12, 6, 16, 11, 10, 38, 24, 30, 2, 0)
s = 40: (0, 25, 7, 5, 13, 19, 14, 29, 14, 29, 2, 0)
s = 41: (0, 37, 17, 4, 19, 19, 12, 39, 31, 29, 2, 0)
s = 42: (0, 45, 17, 6, 23, 17, 9, 26, 32, 28, 4, 0)
s = 43: (0, 23, 14, 8, 14, 15, 12, 20, 17, 48, 2, 0)
s = 44: (0, 37, 10, 7, 14, 15, 10, 31, 17, 37, 3, 0)
s = 45: (0, 26, 9, 6, 25, 12, 15, 53, 18, 28, 4, 0)
s = 46: (0, 58, 10, 6, 16, 22, 8, 27, 17, 40, 3, 0)
s = 47: (0, 31, 15, 6, 27, 19, 9, 29, 25, 26, 2, 0)
s = 48: (0, 33, 9, 7, 26, 9, 10, 43, 15, 43, 3, 0)
s = 49: (0, 35, 10, 5, 28, 14, 15, 27, 18, 32, 3, 0)
s = 50: (0, 35, 11, 6, 17, 11, 10, 42, 21, 37, 2, 0)
s = 51: (0, 47, 16, 8, 18, 11, 14, 32, 27, 20, 2, 0)
s = 52: (0, 37, 8, 6, 19, 18, 9, 25, 26, 23, 3, 0)
s = 53: (0, 38, 17, 6, 27, 8, 13, 22, 37, 27, 2, 0)
s = 54: (0, 50, 10, 7, 20, 16, 21, 35, 23, 29, 4, 0)
s = 55: (0, 46, 13, 6, 15, 12, 11, 20, 20, 44, 2, 0)
s = 56: (0, 44, 16, 5, 18, 17, 15, 23, 15, 32, 2, 0)
s = 57: (0, 41, 11, 7, 20, 18, 15, 31, 22, 37, 2, 0)
s = 58: (0, 53, 10, 4, 19, 16, 12, 28, 22, 38, 2, 0)
s = 59: (0, 46, 8, 9, 19, 19, 14, 44, 24, 29, 3, 0)
s = 60: (0, 54, 11, 7, 19, 17, 12, 41, 23, 19, 3, 0)
s = 61: (0, 33, 8, 6, 20, 12, 8, 45, 23, 32, 2, 0)
s = 62: (0, 61, 11, 4, 28, 14, 12, 23, 18, 38, 3, 0)
s = 63: (0, 35, 11, 7, 17, 12, 10, 22, 20, 26, 2, 0)
s = 64: (0, 49, 18, 8, 19, 9, 17, 23, 15, 40, 2, 0)
s = 65: (0, 33, 13, 6, 40, 17, 8, 29, 13, 33, 2, 0)
s = 66: (0, 36, 15, 7, 22, 15, 16, 29, 29, 35, 2, 0)
s = 67: (0, 52, 17, 11, 15, 10, 7, 31, 20, 33, 2, 0)
s = 68: (0, 42, 20, 9, 33, 12, 11, 39, 23, 42, 2, 0)
s = 69: (0, 42, 10, 5, 21, 18, 12, 41, 12, 25, 2, 0)
s = 70: (0, 27, 14, 7, 21, 14, 9, 56, 15, 28, 2, 0)
s = 71: (0, 32, 11, 6, 13, 13, 15, 28, 25, 39, 2, 0)
s = 72: (0, 28, 14, 5, 14, 10, 10, 47, 16, 27, 2, 0)
s = 73: (0, 24, 18, 7, 16, 12, 10, 49, 13, 33, 2, 0)
s = 74: (0, 56, 17, 5, 27, 12, 10, 23, 28, 18, 3, 0)
s = 75: (0, 46, 11, 7, 17, 19, 22, 26, 14, 27, 2, 0)
s = 76: (0, 48, 9, 6, 12, 12, 13, 52, 14, 24, 2, 0)
s = 77: (0, 23, 11, 5, 22, 13, 9, 37, 19, 36, 3, 0)
s = 78: (0, 51, 10, 8, 23, 9, 9, 46, 20, 34, 3, 0)
s = 79: (0, 46, 10, 8, 26, 20, 14, 24, 19, 33, 2, 0)
s = 80: (0, 60, 8, 9, 21, 13, 21, 51, 19, 47, 2, 0)
s = 81: (0, 29, 11, 6, 32, 19, 17, 45, 22, 25, 3, 0)
s = 82: (0, 44, 13, 8, 17, 13, 8, 35, 15, 27, 2, 0)
s = 83: (0, 36, 11, 7, 17, 19, 10, 39, 16, 47, 3, 0)
s = 84: (0, 32, 12, 9, 27, 18, 16, 45, 20, 31, 3, 0)
s = 85: (0, 28, 13, 8, 32, 16, 17, 39, 15, 25, 2, 0)
s = 86: (0, 51, 17, 9, 18, 15, 11, 35, 20, 23, 2, 0)
s = 87: (0, 51, 10, 7, 18, 21, 12, 51, 20, 27, 3, 0)
s = 88: (0, 32, 10, 6, 14, 13, 13, 43, 13, 32, 3, 0)
s = 89: (0, 38, 16, 6, 20, 14, 13, 32, 19, 27, 2, 0)
s = 90: (0, 38, 7, 10, 22, 16, 11, 33, 12, 35, 2, 0)
s = 91: (0, 36, 16, 8, 16, 19, 12, 50, 17, 36, 3, 0)
s = 92: (0, 32, 8, 7, 24, 14, 8, 44, 21, 27, 2, 0)
s = 93: (0, 37, 11, 7, 14, 17, 20, 50, 27, 23, 2, 0)
s = 94: (0, 74, 12, 7, 23, 13, 13, 44, 27, 34, 2, 0)
s = 95: (0, 43, 13, 7, 32, 16, 11, 28, 17, 33, 3, 0)
s = 96: (0, 37, 13, 9, 32, 17, 14, 44, 26, 37, 4, 0)
s = 97: (0, 56, 16, 6, 21, 19, 12, 41, 19, 34, 2, 0)
s = 98: (0, 37, 8, 8, 33, 16, 9, 41, 15, 38, 3, 0)
s = 99: (0, 46, 15, 5, 28, 17, 11, 24, 22, 27, 2, 0)
s = 100: (0, 23, 12, 11, 28, 8, 16, 44, 24, 26, 2, 0)
s = 101: (0, 43, 14, 4, 17, 16, 15, 41, 19, 30, 3, 0)
s = 102: (0, 48, 8, 6, 18, 16, 9, 48, 16, 27, 2, 0)
s = 103: (0, 28, 13, 8, 14, 21, 12, 28, 19, 23, 2, 0)
s = 104: (0, 29, 9, 8, 12, 19, 7, 52, 25, 48, 3, 0)
s = 105: (0, 28, 13, 6, 13, 18, 10, 60, 18, 29, 3, 0)
s = 106: (0, 54, 11, 9, 23, 16, 16, 41, 26, 30, 2, 0)
s = 107: (0, 26, 14, 5, 17, 10, 19, 43, 19, 37, 2, 0)
s = 108: (0, 62, 15, 6, 25, 10, 8, 54, 17, 18, 4, 0)
s = 109: (0, 37, 14, 4, 18, 18, 14, 43, 22, 37, 2, 0)
s = 110: (0, 54, 16, 6, 16, 13, 8, 44, 21, 25, 3, 0)
s = 111: (0, 36, 11, 6, 27, 17, 16, 33, 33, 39, 2, 0)
s = 112: (0, 45, 8, 9, 17, 8, 7, 29, 21, 24, 2, 0)
s = 113: (0, 43, 10, 5, 18, 17, 9, 44, 14, 33, 2, 0)
s = 114: (0, 51, 8, 6, 12, 15, 11, 47, 26, 34, 3, 0)
s = 115: (0, 28, 14, 9, 25, 14, 17, 20, 15, 30, 2, 0)
s = 116: (0, 27, 7, 6, 16, 16, 11, 36, 21, 49, 2, 0)
s = 117: (0, 54, 13, 7, 20, 15, 8, 26, 27, 19, 3, 0)
s = 118: (0, 36, 9, 9, 16, 13, 9, 45, 15, 25, 3, 0)
s = 119: (0, 52, 15, 5, 25, 9, 8, 61, 17, 30, 2, 0)
s = 120: (0, 45, 11, 8, 18, 16, 10, 39, 17, 36, 2, 0)
s = 121: (0, 47, 9, 8, 19, 11, 8, 33, 14, 31, 3, 0)
s = 122: (0, 27, 15, 10, 21, 17, 10, 44, 26, 35, 3, 0)
s = 123: (0, 36, 16, 10, 19, 16, 16, 26, 23, 32, 2, 0)
s = 124: (0, 39, 10, 7, 24, 8, 23, 60, 19, 42, 2, 0)
s = 125: (0, 45, 8, 4, 21, 14, 11, 43, 18, 26, 2, 0)
s = 126: (0, 36, 13, 10, 20, 14, 11, 46, 23, 30, 2, 0)
s = 127: (0, 75, 10, 7, 18, 17, 17, 54, 22, 35, 3, 0)
s = 128: (0, 52, 7, 6, 19, 9, 8, 33, 25, 39, 2, 0)
s = 129: (0, 22, 18, 6, 13, 17, 15, 30, 27, 39, 2, 0)
s = 130: (0, 43, 16, 5, 22, 17, 8, 31, 26, 32, 3, 0)
s = 131: (0, 34, 17, 5, 25, 19, 11, 33, 27, 28, 2, 0)
s = 132: (0, 40, 9, 8, 29, 20, 11, 35, 19, 45, 2, 0)
s = 133: (0, 24, 16, 6, 30, 12, 16, 46, 22, 33, 3, 0)
s = 134: (0, 69, 11, 8, 32, 14, 11, 37, 32, 28, 3, 0)
s = 135: (0, 34, 10, 4, 23, 20, 12, 29, 29, 41, 2, 0)
s = 136: (0, 27, 11, 4, 24, 10, 9, 49, 14, 25, 3, 0)
s = 137: (0, 63, 16, 6, 21, 9, 13, 25, 18, 31, 3, 0)
s = 138: (0, 41, 13, 7, 22, 11, 10, 27, 19, 23, 2, 0)
s = 139: (0, 51, 8, 4, 21, 18, 14, 44, 28, 24, 3, 0)
s = 140: (0, 30, 12, 9, 25, 17, 10, 34, 18, 44, 2, 0)
s = 141: (0, 21, 8, 9, 23, 18, 12, 51, 20, 45, 3, 0)
s = 142: (0, 51, 16, 5, 12, 16, 11, 25, 31, 37, 3, 0)
s = 143: (0, 49, 14, 8, 22, 20, 13, 35, 14, 33, 2, 0)
s = 144: (0, 45, 12, 5, 29, 21, 12, 31, 34, 59, 2, 0)
s = 145: (0, 30, 10, 5, 14, 16, 8, 33, 22, 49, 2, 0)
s = 146: (0, 47, 20, 6, 17, 8, 14, 34, 14, 33, 3, 0)
s = 147: (0, 66, 16, 5, 23, 17, 8, 29, 23, 45, 2, 0)
s = 148: (0, 40, 8, 7, 25, 23, 14, 41, 17, 24, 2, 0)
s = 149: (0, 77, 11, 12, 21, 21, 12, 35, 26, 36, 3, 0)
s = 150: (0, 36, 8, 5, 30, 10, 15, 34, 21, 36, 2, 0)
s = 151: (0, 31, 14, 7, 17, 26, 8, 37, 15, 28, 2, 0)
s = 152: (0, 37, 13, 5, 15, 12, 10, 61, 34, 29, 2, 0)
s = 153: (0, 33, 14, 7, 16, 9, 8, 49, 20, 46, 2, 0)
s = 154: (0, 56, 15, 5, 23, 15, 11, 24, 17, 35, 3, 0)
s = 155: (0, 37, 11, 6, 22, 9, 17, 32, 23, 21, 3, 0)
s = 156: (0, 42, 12, 9, 21, 15, 13, 36, 23, 45, 3, 0)
s = 157: (0, 42, 15, 5, 19, 10, 16, 40, 16, 57, 3, 0)
s = 158: (0, 59, 18, 7, 17, 23, 10, 35, 24, 45, 3, 0)
s = 159: (0, 53, 8, 6, 24, 10, 14, 24, 17, 39, 4, 0)
s = 160: (0, 70, 15, 5, 24, 15, 19, 29, 37, 31, 2, 0)
s = 161: (0, 58, 14, 4, 12, 17, 18, 31, 16, 31, 3, 0)
s = 162: (0, 50, 17, 5, 24, 11, 15, 31, 15, 19, 2, 0)
s = 163: (0, 39, 17, 8, 29, 22, 18, 39, 24, 34, 3, 0)
s = 164: (0, 40, 16, 7, 28, 12, 12, 23, 21, 49, 2, 0)
s = 165: (0, 53, 10, 8, 24, 14, 9, 24, 20, 43, 2, 0)
s = 166: (0, 36, 9, 5, 35, 22, 13, 29, 16, 24, 2, 0)
s = 167: (0, 55, 12, 6, 17, 12, 10, 33, 12, 28, 2, 0)
s = 168: (0, 22, 9, 5, 13, 14, 18, 38, 33, 40, 2, 0)
s = 169: (0, 36, 9, 11, 40, 13, 18, 32, 12, 34, 2, 0)
s = 170: (0, 43, 10, 8, 28, 14, 10, 20, 15, 25, 2, 0)
s = 171: (0, 41, 11, 6, 22, 8, 13, 51, 29, 22, 4, 0)
s = 172: (0, 39, 14, 6, 16, 13, 9, 32, 35, 48, 3, 0)
s = 173: (0, 37, 8, 5, 30, 12, 13, 22, 13, 23, 2, 0)
s = 174: (0, 47, 8, 9, 24, 18, 9, 41, 27, 31, 2, 0)
s = 175: (0, 44, 11, 7, 31, 10, 9, 49, 16, 23, 2, 0)
s = 176: (0, 38, 15, 4, 33, 9, 11, 47, 14, 28, 2, 0)
s = 177: (0, 32, 12, 4, 16, 11, 13, 34, 17, 29, 3, 0)
s = 178: (0, 59, 11, 5, 23, 16, 11, 34, 24, 23, 2, 0)
s = 179: (0, 30, 9, 6, 14, 21, 16, 42, 15, 21, 2, 0)
s = 180: (0, 43, 10, 6, 16, 9, 9, 45, 30, 27, 3, 0)
s = 181: (0, 29, 11, 6, 26, 22, 13, 34, 12, 40, 3, 0)
s = 182: (0, 33, 13, 8, 13, 17, 12, 41, 36, 24, 2, 0)
s = 183: (0, 62, 10, 5, 18, 19, 10, 33, 21, 25, 2, 0)
s = 184: (0, 42, 14, 8, 27, 18, 18, 42, 14, 32, 4, 0)
s = 185: (0, 34, 15, 5, 21, 9, 15, 30, 23, 30, 2, 0)
s = 186: (0, 31, 10, 5, 23, 9, 20, 36, 32, 32, 2, 0)
s = 187: (0, 38, 9, 8, 18, 18, 9, 31, 32, 32, 3, 0)
s = 188: (0, 22, 11, 4, 15, 12, 10, 35, 27, 36, 3, 0)
s = 189: (0, 22, 8, 6, 19, 12, 10, 20, 36, 23, 2, 0)
s = 190: (0, 49, 18, 4, 24, 10, 9, 36, 15, 32, 2, 0)
s = 191: (0, 26, 11, 6, 21, 11, 12, 45, 16, 28, 3, 0)
s = 192: (0, 43, 20, 5, 20, 12, 13, 27, 18, 24, 3, 0)
s = 193: (0, 30, 16, 8, 31, 20, 11, 34, 29, 42, 2, 0)
s = 194: (0, 45, 21, 6, 26, 15, 13, 49, 14, 36, 2, 0)
s = 195: (0, 54, 12, 6, 23, 16, 11, 52, 24, 24, 3, 0)
s = 196: (0, 43, 13, 5, 18, 11, 10, 45, 15, 28, 2, 0)
s = 197: (0, 25, 9, 5, 16, 17, 12, 27, 19, 24, 2, 0)
s = 198: (0, 34, 15, 5, 22, 9, 9, 32, 38, 39, 3, 0)
s = 199: (0, 32, 8, 6, 19, 14, 20, 38, 14, 21, 2, 0)
s = 200: (0, 49, 14, 8, 15, 14, 12, 32, 21, 58, 3, 0)
************************************************************************
ES/LS-VALUES:
jobnr.   ES(i)    LS(i)
------------------------------------------------------------------------
  0        0        0
  1        0       42
  2        0       64
  3        0       73
  4       15       58
  5       15       64
  6       21       64
  7        3       68
  8       21       71
  9       25       68
 10       25       75
 11       33       77
************************************************************************
BIG-M-VALUES:
M1 = 85, M2 = 259
************************************************************************
